
(set-logic HORN)
(declare-fun Z_1953 () Int)
(declare-fun S_437 (Int) Int)
(declare-datatypes ((Bool_324 0)) (((false_324) (true_324))))
(declare-fun diseqBool_149 (Bool_324 Bool_324) Bool)
(declare-fun isfalse_149 (Bool_324) Bool)
(declare-fun istrue_149 (Bool_324) Bool)
(assert (isfalse_149 false_324))
(assert (istrue_149 true_324))
(assert (diseqBool_149 false_324 true_324))
(assert (diseqBool_149 true_324 false_324))
(declare-fun and_324 (Bool_324 Bool_324 Bool_324) Bool)
(declare-fun or_331 (Bool_324 Bool_324 Bool_324) Bool)
(declare-fun hence_324 (Bool_324 Bool_324 Bool_324) Bool)
(declare-fun not_329 (Bool_324 Bool_324) Bool)
(assert (and_324 false_324 false_324 false_324))
(assert (and_324 false_324 true_324 false_324))
(assert (and_324 false_324 false_324 true_324))
(assert (and_324 true_324 true_324 true_324))
(assert (or_331 false_324 false_324 false_324))
(assert (or_331 true_324 true_324 false_324))
(assert (or_331 true_324 false_324 true_324))
(assert (or_331 true_324 true_324 true_324))
(assert (hence_324 true_324 false_324 false_324))
(assert (hence_324 false_324 true_324 false_324))
(assert (hence_324 true_324 false_324 true_324))
(assert (hence_324 true_324 true_324 true_324))
(assert (not_329 true_324 false_324))
(assert (not_329 false_324 true_324))
(declare-fun diseqInt (Int Int) Bool)
(declare-fun projS_161 (Int Int) Bool)
(declare-fun isZ_404 (Int) Bool)
(declare-fun isS_404 (Int) Bool)
(assert (forall ((x_54440 Int))
	(projS_161 x_54440 (S_437 x_54440))))
(assert (isZ_404 Z_1953))
(assert (forall ((x_54442 Int))
	(isS_404 (S_437 x_54442))))
(assert (forall ((x_54443 Int))
	(diseqInt Z_1953 (S_437 x_54443))))
(assert (forall ((x_54444 Int))
	(diseqInt (S_437 x_54444) Z_1953)))
(assert (forall ((x_54445 Int) (x_54446 Int))
	(=> (diseqInt x_54445 x_54446) (diseqInt (S_437 x_54445) (S_437 x_54446)))))
(declare-datatypes ((list_229 0)) (((nil_259) (cons_229 (head_458 Int) (tail_458 list_229)))))
(declare-fun diseqlist_229 (list_229 list_229) Bool)
(declare-fun head_459 (Int list_229) Bool)
(declare-fun tail_459 (list_229 list_229) Bool)
(declare-fun isnil_259 (list_229) Bool)
(declare-fun iscons_229 (list_229) Bool)
(assert (forall ((x_54448 Int) (x_54449 list_229))
	(head_459 x_54448 (cons_229 x_54448 x_54449))))
(assert (forall ((x_54448 Int) (x_54449 list_229))
	(tail_459 x_54449 (cons_229 x_54448 x_54449))))
(assert (isnil_259 nil_259))
(assert (forall ((x_54451 Int) (x_54452 list_229))
	(iscons_229 (cons_229 x_54451 x_54452))))
(assert (forall ((x_54453 Int) (x_54454 list_229))
	(diseqlist_229 nil_259 (cons_229 x_54453 x_54454))))
(assert (forall ((x_54455 Int) (x_54456 list_229))
	(diseqlist_229 (cons_229 x_54455 x_54456) nil_259)))
(assert (forall ((x_54457 Int) (x_54458 list_229) (x_54459 Int) (x_54460 list_229))
	(=> (diseqInt x_54457 x_54459) (diseqlist_229 (cons_229 x_54457 x_54458) (cons_229 x_54459 x_54460)))))
(assert (forall ((x_54457 Int) (x_54458 list_229) (x_54459 Int) (x_54460 list_229))
	(=> (diseqlist_229 x_54458 x_54460) (diseqlist_229 (cons_229 x_54457 x_54458) (cons_229 x_54459 x_54460)))))
(declare-fun barbar_2 (Bool_324 Bool_324 Bool_324) Bool)
(assert (forall ((y_2187 Bool_324))
	(barbar_2 true_324 true_324 y_2187)))
(assert (forall ((x_54413 Bool_324))
	(barbar_2 x_54413 false_324 x_54413)))
(declare-fun x_54403 (Bool_324 Int Int) Bool)
(assert (forall ((x_54414 Bool_324) (y_2189 Int) (x_54405 Int))
	(=> (x_54403 x_54414 x_54405 y_2189) (x_54403 x_54414 (S_437 x_54405) (S_437 y_2189)))))
(assert (forall ((x_54405 Int))
	(x_54403 false_324 (S_437 x_54405) Z_1953)))
(assert (forall ((z_1954 Int))
	(x_54403 false_324 Z_1953 (S_437 z_1954))))
(assert (x_54403 true_324 Z_1953 Z_1953))
(declare-fun elem_14 (Bool_324 Int list_229) Bool)
(assert (forall ((x_54419 Bool_324) (x_54420 Bool_324) (x_54421 Bool_324) (z_1955 Int) (xs_625 list_229) (x_54406 Int))
	(=> (and (x_54403 x_54420 x_54406 z_1955) (elem_14 x_54421 x_54406 xs_625) (barbar_2 x_54419 x_54420 x_54421)) (elem_14 x_54419 x_54406 (cons_229 z_1955 xs_625)))))
(assert (forall ((x_54406 Int))
	(elem_14 false_324 x_54406 nil_259)))
(declare-fun x_54407 (Bool_324 Int Int) Bool)
(assert (forall ((x_54424 Bool_324) (x_54409 Int) (z_1956 Int))
	(=> (x_54407 x_54424 z_1956 x_54409) (x_54407 x_54424 (S_437 z_1956) (S_437 x_54409)))))
(assert (forall ((z_1956 Int))
	(x_54407 false_324 (S_437 z_1956) Z_1953)))
(assert (forall ((y_2191 Int))
	(x_54407 true_324 Z_1953 y_2191)))
(declare-fun insert_28 (list_229 Int list_229) Bool)
(assert (forall ((z_1957 Int) (xs_626 list_229) (x_54410 Int))
	(=> (x_54407 true_324 x_54410 z_1957) (insert_28 (cons_229 x_54410 (cons_229 z_1957 xs_626)) x_54410 (cons_229 z_1957 xs_626)))))
(assert (forall ((x_54432 list_229) (z_1957 Int) (xs_626 list_229) (x_54410 Int))
	(=> (and (insert_28 x_54432 x_54410 xs_626) (x_54407 false_324 x_54410 z_1957)) (insert_28 (cons_229 z_1957 x_54432) x_54410 (cons_229 z_1957 xs_626)))))
(assert (forall ((x_54410 Int))
	(insert_28 (cons_229 x_54410 nil_259) x_54410 nil_259)))
(assert (forall ((x_54434 list_229) (x_54411 Int) (z_1958 list_229))
	(=> (and true (insert_28 x_54434 x_54411 z_1958) (elem_14 false_324 x_54411 x_54434)) false)))
(check-sat)
